36 47 19 49 48 
21 73 41 26 
40 53 
12 54 24 80 
27 69 30 51 20 32 70 
76 79 3 68 
14 44 38 43 91 100 
5 61 85 37 93 
28 29 78 55 25 
95 98 16 86 17 
92 42 15 57 58 
72 75 22 74 
33 81 50 
63 64 90 66 1 
39 23 67 56 4 
45 8 46 60 89 
65 71 9 34 35 77 
2 87 97 13 
59 99 84 96 
62 11 10 
52 94 
31 88 7 
83 82 18 6 
